(set-info :source |printed by MathSAT|)
(declare-fun main@%a.0.i_0_1 () Int)
(declare-fun .y.12 () Int)
(declare-fun .y.9 () Int)
(declare-fun main@%shadow.mem1.0_0_1 () (Array Int Int))
(declare-fun .x.18 () (Array Int Int))
(declare-fun main@%shadow.mem.0_0_1 () (Array Int Int))
(declare-fun .y.14 () (Array Int Int))
(declare-fun main@%b.0.i_0_1 () Int)
(declare-fun .x.19 () Int)
(declare-fun main@%c.0.i_0_1 () Int)
(declare-fun .x.20 () Int)
(declare-fun main@%tmp14.i_0_1 () Int)
(declare-fun main@%x.0.i_1 () Int)
(declare-fun main@%tmp17.i_0_1 () Int)
(declare-fun .y.15 () Int)
(declare-fun @nd_char_0_2 () Int)
(declare-fun .y.16 () Int)
(declare-fun main@%tmp2.i_0_1 () Int)
(declare-fun .y.17 () Int)
(declare-fun .loc.10 () Bool)
(declare-fun .loc.18 () Bool)
(declare-fun .loc.11 () Bool)
(declare-fun .loc.19 () Bool)
(declare-fun main@%tmp24.i_0 () Int)
(declare-fun main@%tmp31.i_0 () Bool)
(declare-fun main@bb23.i_0 () Bool)
(declare-fun main@bb18.i_0_0 () Bool)
(declare-fun main@bb40.i_0 () Bool)
(declare-fun main@bb32.i_0 () Bool)
(declare-fun main@%b.1.i_1 () Int)
(declare-fun main@%tmp39.i_0 () Int)
(declare-fun main@%shadow.mem.1_1 () (Array Int Int))
(declare-fun main@%_5_0 () (Array Int Int))
(declare-fun main@%c.1.i_0 () Int)
(declare-fun main@%tmp47.i_0 () Int)
(declare-fun main@%shadow.mem1.1_0 () (Array Int Int))
(declare-fun main@%_6_0 () (Array Int Int))
(declare-fun main@%c.1.i_1 () Int)
(declare-fun main@%shadow.mem1.1_1 () (Array Int Int))
(declare-fun main@%b.1.i_0 () Int)
(declare-fun main@%shadow.mem.1_0 () (Array Int Int))
(declare-fun main@%tmp37.i_0 () Int)
(declare-fun main@%tmp45.i_0 () Int)
(declare-fun main@%tmp58.i_0 () Int)
(declare-fun main@%tmp58.i_0_0 () Int)
(define-fun .def_8 () Int (! main@%a.0.i_0_1 :next |.y.12|))
(define-fun .def_10 () Int (! .y.9 :next |.y.13|))
(define-fun .def_12 () (Array Int Int) (! main@%shadow.mem1.0_0_1 :next |.x.18|))
(define-fun .def_14 () (Array Int Int) (! main@%shadow.mem.0_0_1 :next |.y.14|))
(define-fun .def_16 () Int (! main@%b.0.i_0_1 :next |.x.19|))
(define-fun .def_18 () Int (! main@%c.0.i_0_1 :next |.x.20|))
(define-fun .def_20 () Int (! main@%tmp14.i_0_1 :next |main@%x.0.i_1|))
(define-fun .def_22 () Int (! main@%tmp17.i_0_1 :next |.y.15|))
(define-fun .def_24 () Int (! @nd_char_0_2 :next |.y.16|))
(define-fun .def_26 () Int (! main@%tmp2.i_0_1 :next |.y.17|))
(define-fun .def_28 () Bool (! .loc.10 :next |.loc.18|))
(define-fun .def_30 () Bool (! .loc.11 :next |.loc.19|))
(define-fun .def_33 () Int (! main@%tmp24.i_0 :next |.xtv.1|))
(define-fun .def_36 () Bool (! main@%tmp31.i_0 :next |.xtv.2|))
(define-fun .def_38 () Bool (! main@bb23.i_0 :next |.xtv.3|))
(define-fun .def_41 () Bool (! main@bb18.i_0_0 :next |.xtv.4|))
(define-fun .def_45 () Bool (! main@bb40.i_0 :next |.xtv.5|))
(define-fun .def_54 () Bool (! main@bb32.i_0 :next |.xtv.6|))
(define-fun .def_62 () Int (! main@%b.1.i_1 :next |.xtv.7|))
(define-fun .def_63 () Int (! main@%tmp39.i_0 :next |.xtv.8|))
(define-fun .def_67 () (Array Int Int) (! main@%shadow.mem.1_1 :next |.xtv.9|))
(define-fun .def_68 () (Array Int Int) (! main@%_5_0 :next |.xtv.10|))
(define-fun .def_72 () Int (! main@%c.1.i_0 :next |.xtv.11|))
(define-fun .def_73 () Int (! main@%tmp47.i_0 :next |.xtv.12|))
(define-fun .def_77 () (Array Int Int) (! main@%shadow.mem1.1_0 :next |.xtv.13|))
(define-fun .def_78 () (Array Int Int) (! main@%_6_0 :next |.xtv.14|))
(define-fun .def_94 () Int (! main@%c.1.i_1 :next |.xtv.15|))
(define-fun .def_104 () (Array Int Int) (! main@%shadow.mem1.1_1 :next |.xtv.16|))
(define-fun .def_111 () Int (! main@%b.1.i_0 :next |.xtv.17|))
(define-fun .def_115 () (Array Int Int) (! main@%shadow.mem.1_0 :next |.xtv.18|))
(define-fun .def_142 () Int (! main@%tmp37.i_0 :next |.xtv.19|))
(define-fun .def_173 () Int (! main@%tmp45.i_0 :next |.xtv.20|))
(define-fun .def_196 () Int (! main@%tmp58.i_0 :next |.xtv.21|))
(define-fun .def_284 () Int (! main@%tmp58.i_0_0 :next |.xpv.1|))
(define-fun .def_219 () Bool (not .def_28))
(define-fun .def_85 () Bool (not .def_30))
(define-fun .def_283 () Bool (! (and .def_85 .def_219) :init true))
(define-fun .def_278 () Bool (not .loc.18))
(define-fun .def_276 () Bool (= .def_16 .x.19))
(define-fun .def_277 () Bool (and .loc.19 .def_276))
(define-fun .def_279 () Bool (and .def_277 .def_278))
(define-fun .def_271 () Bool (= main@%x.0.i_1 0))
(define-fun .def_268 () Bool (= .x.18 .def_14))
(define-fun .def_267 () Bool (= .x.20 .def_20))
(define-fun .def_269 () Bool (and .def_267 .def_268))
(define-fun .def_201 () Int (* 16777216 .def_26))
(define-fun .def_203 () Real (* (/ 1 16777216) (to_real .def_201)))
(define-fun .def_204 () Int (to_int .def_203))
(define-fun .def_205 () Bool (<= .def_204 .def_8))
(define-fun .def_270 () Bool (and .def_205 .def_269))
(define-fun .def_272 () Bool (and .def_270 .def_271))
(define-fun .def_273 () Bool (and .def_28 .def_272))
(define-fun .def_274 () Bool (and .def_85 .def_273))
(define-fun .def_265 () Bool (= .def_18 .x.20))
(define-fun .def_263 () Bool (= .def_12 .x.18))
(define-fun .def_260 () Bool (<= .def_16 .def_20))
(define-fun .def_261 () Bool (not .def_260))
(define-fun .def_255 () Int (* (- 1) .def_196))
(define-fun .def_256 () Int (+ .def_20 .def_255))
(define-fun .def_257 () Int (+ .def_18 .def_256))
(define-fun .def_258 () Bool (= .def_257 0))
(define-fun .def_251 () Bool (<= .def_196 0))
(define-fun .def_252 () Bool (not .def_251))
(define-fun .def_248 () Bool (<= .def_18 0))
(define-fun .def_253 () Bool (or .def_248 .def_252))
(define-fun .def_249 () Bool (not .def_248))
(define-fun .def_244 () Int (* (- 1) main@%x.0.i_1))
(define-fun .def_245 () Int (+ .def_20 .def_244))
(define-fun .def_246 () Bool (= .def_245 (- 1)))
(define-fun .def_242 () Bool (and .def_30 .def_219))
(define-fun .def_239 () Int (select .def_12 .def_196))
(define-fun .def_240 () Bool (<= .def_239 (- 1)))
(define-fun .def_241 () Bool (not .def_240))
(define-fun .def_243 () Bool (and .def_241 .def_242))
(define-fun .def_247 () Bool (and .def_243 .def_246))
(define-fun .def_250 () Bool (and .def_247 .def_249))
(define-fun .def_254 () Bool (and .def_250 .def_253))
(define-fun .def_259 () Bool (and .def_254 .def_258))
(define-fun .def_262 () Bool (and .def_259 .def_261))
(define-fun .def_264 () Bool (and .def_262 .def_263))
(define-fun .def_266 () Bool (and .def_264 .def_265))
(define-fun .def_275 () Bool (or .def_266 .def_274))
(define-fun .def_280 () Bool (and .def_275 .def_279))
(define-fun .def_237 () Bool (= .def_8 .y.16))
(define-fun .def_234 () Bool (<= .y.17 0))
(define-fun .def_235 () Bool (not .def_234))
(define-fun .def_231 () Bool (<= main@%x.0.i_1 0))
(define-fun .def_232 () Bool (not .def_231))
(define-fun .def_228 () Bool (<= .y.15 0))
(define-fun .def_229 () Bool (not .def_228))
(define-fun .def_226 () Bool (= .x.20 0))
(define-fun .def_224 () Bool (= .y.12 0))
(define-fun .def_222 () Bool (= .x.19 0))
(define-fun .def_218 () Bool (and .loc.18 .def_85))
(define-fun .def_220 () Bool (and .def_218 .def_219))
(define-fun .def_88 () Bool (not .loc.19))
(define-fun .def_221 () Bool (and .def_88 .def_220))
(define-fun .def_223 () Bool (and .def_221 .def_222))
(define-fun .def_225 () Bool (and .def_223 .def_224))
(define-fun .def_227 () Bool (and .def_225 .def_226))
(define-fun .def_230 () Bool (and .def_227 .def_229))
(define-fun .def_233 () Bool (and .def_230 .def_232))
(define-fun .def_236 () Bool (and .def_233 .def_235))
(define-fun .def_238 () Bool (and .def_236 .def_237))
(define-fun .def_281 () Bool (or .def_238 .def_280))
(define-fun .def_216 () Bool (= .def_26 .y.17))
(define-fun .def_214 () Bool (= .def_24 .y.16))
(define-fun .def_212 () Bool (= .def_22 .y.15))
(define-fun .def_210 () Bool (= .def_20 main@%x.0.i_1))
(define-fun .def_42 () Bool (and .def_38 .def_41))
(define-fun .def_207 () Bool (not .def_42))
(define-fun .def_206 () Bool (not .def_205))
(define-fun .def_208 () Bool (or .def_206 .def_207))
(define-fun .def_197 () Bool (= .def_24 .def_196))
(define-fun .def_39 () Bool (not .def_38))
(define-fun .def_198 () Bool (or .def_39 .def_197))
(define-fun .def_190 () Int (* (- 1) .def_173))
(define-fun .def_191 () Int (+ .def_22 .def_190))
(define-fun .def_192 () Int (+ .def_18 .def_191))
(define-fun .def_193 () Bool (= .def_192 0))
(define-fun .def_46 () Bool (not .def_45))
(define-fun .def_194 () Bool (or .def_46 .def_193))
(define-fun .def_182 () Bool (<= .def_173 0))
(define-fun .def_183 () Bool (not .def_182))
(define-fun .def_178 () Bool (<= .def_22 0))
(define-fun .def_184 () Bool (or .def_178 .def_183))
(define-fun .def_185 () Bool (or .def_46 .def_184))
(define-fun .def_179 () Bool (not .def_178))
(define-fun .def_180 () Bool (or .def_46 .def_179))
(define-fun .def_174 () (Array Int Int) (store .def_12 .def_173 .def_33))
(define-fun .def_175 () Bool (= .def_78 .def_174))
(define-fun .def_176 () Bool (or .def_46 .def_175))
(define-fun .def_168 () Int (* (- 1) .def_73))
(define-fun .def_169 () Int (+ .def_18 .def_168))
(define-fun .def_170 () Bool (= .def_169 (- 1)))
(define-fun .def_171 () Bool (or .def_46 .def_170))
(define-fun .def_160 () Int (* (- 1) .def_142))
(define-fun .def_161 () Int (+ .def_20 .def_160))
(define-fun .def_162 () Int (+ .def_16 .def_161))
(define-fun .def_163 () Bool (= .def_162 0))
(define-fun .def_55 () Bool (not .def_54))
(define-fun .def_164 () Bool (or .def_55 .def_163))
(define-fun .def_152 () Bool (<= .def_142 0))
(define-fun .def_153 () Bool (not .def_152))
(define-fun .def_148 () Bool (<= .def_20 0))
(define-fun .def_154 () Bool (or .def_148 .def_153))
(define-fun .def_155 () Bool (or .def_55 .def_154))
(define-fun .def_149 () Bool (not .def_148))
(define-fun .def_150 () Bool (or .def_55 .def_149))
(define-fun .def_143 () (Array Int Int) (store .def_14 .def_142 .def_33))
(define-fun .def_144 () Bool (= .def_68 .def_143))
(define-fun .def_145 () Bool (or .def_55 .def_144))
(define-fun .def_137 () Int (* (- 1) .def_63))
(define-fun .def_138 () Int (+ .def_16 .def_137))
(define-fun .def_139 () Bool (= .def_138 (- 1)))
(define-fun .def_140 () Bool (or .def_55 .def_139))
(define-fun .def_131 () Bool (= .def_14 .def_115))
(define-fun .def_132 () Bool (or .def_46 .def_131))
(define-fun .def_128 () Bool (= .def_16 .def_111))
(define-fun .def_129 () Bool (or .def_46 .def_128))
(define-fun .def_125 () Bool (= .def_12 .def_104))
(define-fun .def_126 () Bool (or .def_55 .def_125))
(define-fun .def_122 () Bool (= .def_18 .def_94))
(define-fun .def_123 () Bool (or .def_55 .def_122))
(define-fun .def_119 () Bool (= .x.18 .def_77))
(define-fun .def_120 () Bool (or .def_46 .def_119))
(define-fun .def_116 () Bool (= .y.14 .def_115))
(define-fun .def_117 () Bool (or .def_46 .def_116))
(define-fun .def_112 () Bool (= .x.19 .def_111))
(define-fun .def_113 () Bool (or .def_46 .def_112))
(define-fun .def_108 () Bool (= .x.20 .def_72))
(define-fun .def_109 () Bool (or .def_46 .def_108))
(define-fun .def_105 () Bool (= .x.18 .def_104))
(define-fun .def_106 () Bool (or .def_55 .def_105))
(define-fun .def_101 () Bool (= .y.14 .def_67))
(define-fun .def_102 () Bool (or .def_55 .def_101))
(define-fun .def_98 () Bool (= .x.19 .def_62))
(define-fun .def_99 () Bool (or .def_55 .def_98))
(define-fun .def_95 () Bool (= .x.20 .def_94))
(define-fun .def_96 () Bool (or .def_55 .def_95))
(define-fun .def_90 () Int (* (- 1) .y.12))
(define-fun .def_91 () Int (+ .def_8 .def_90))
(define-fun .def_92 () Bool (= .def_91 (- 1)))
(define-fun .def_82 () Bool (or .def_45 .def_54))
(define-fun .def_79 () Bool (= .def_77 .def_78))
(define-fun .def_80 () Bool (or .def_46 .def_79))
(define-fun .def_74 () Bool (= .def_72 .def_73))
(define-fun .def_75 () Bool (or .def_46 .def_74))
(define-fun .def_69 () Bool (= .def_67 .def_68))
(define-fun .def_70 () Bool (or .def_55 .def_69))
(define-fun .def_64 () Bool (= .def_62 .def_63))
(define-fun .def_65 () Bool (or .def_55 .def_64))
(define-fun .def_56 () Bool (and .def_38 .def_54))
(define-fun .def_59 () Bool (not .def_56))
(define-fun .def_60 () Bool (or .def_36 .def_59))
(define-fun .def_57 () Bool (or .def_55 .def_56))
(define-fun .def_47 () Bool (and .def_38 .def_45))
(define-fun .def_51 () Bool (not .def_47))
(define-fun .def_50 () Bool (not .def_36))
(define-fun .def_52 () Bool (or .def_50 .def_51))
(define-fun .def_48 () Bool (or .def_46 .def_47))
(define-fun .def_43 () Bool (or .def_39 .def_42))
(define-fun .def_34 () Bool (<= .def_33 (- 1)))
(define-fun .def_35 () Bool (not .def_34))
(define-fun .def_37 () Bool (= .def_35 .def_36))
(define-fun .def_40 () Bool (or .def_37 .def_39))
(define-fun .def_44 () Bool (and .def_40 .def_43))
(define-fun .def_49 () Bool (and .def_44 .def_48))
(define-fun .def_53 () Bool (and .def_49 .def_52))
(define-fun .def_58 () Bool (and .def_53 .def_57))
(define-fun .def_61 () Bool (and .def_58 .def_60))
(define-fun .def_66 () Bool (and .def_61 .def_65))
(define-fun .def_71 () Bool (and .def_66 .def_70))
(define-fun .def_76 () Bool (and .def_71 .def_75))
(define-fun .def_81 () Bool (and .def_76 .def_80))
(define-fun .def_83 () Bool (and .def_81 .def_82))
(define-fun .def_84 () Bool (and .def_28 .def_83))
(define-fun .def_86 () Bool (and .def_84 .def_85))
(define-fun .def_87 () Bool (and .loc.18 .def_86))
(define-fun .def_89 () Bool (and .def_87 .def_88))
(define-fun .def_93 () Bool (and .def_89 .def_92))
(define-fun .def_97 () Bool (and .def_93 .def_96))
(define-fun .def_100 () Bool (and .def_97 .def_99))
(define-fun .def_103 () Bool (and .def_100 .def_102))
(define-fun .def_107 () Bool (and .def_103 .def_106))
(define-fun .def_110 () Bool (and .def_107 .def_109))
(define-fun .def_114 () Bool (and .def_110 .def_113))
(define-fun .def_118 () Bool (and .def_114 .def_117))
(define-fun .def_121 () Bool (and .def_118 .def_120))
(define-fun .def_124 () Bool (and .def_121 .def_123))
(define-fun .def_127 () Bool (and .def_124 .def_126))
(define-fun .def_130 () Bool (and .def_127 .def_129))
(define-fun .def_133 () Bool (and .def_130 .def_132))
(define-fun .def_141 () Bool (and .def_133 .def_140))
(define-fun .def_146 () Bool (and .def_141 .def_145))
(define-fun .def_151 () Bool (and .def_146 .def_150))
(define-fun .def_156 () Bool (and .def_151 .def_155))
(define-fun .def_165 () Bool (and .def_156 .def_164))
(define-fun .def_172 () Bool (and .def_165 .def_171))
(define-fun .def_177 () Bool (and .def_172 .def_176))
(define-fun .def_181 () Bool (and .def_177 .def_180))
(define-fun .def_186 () Bool (and .def_181 .def_185))
(define-fun .def_195 () Bool (and .def_186 .def_194))
(define-fun .def_199 () Bool (and .def_195 .def_198))
(define-fun .def_209 () Bool (and .def_199 .def_208))
(define-fun .def_211 () Bool (and .def_209 .def_210))
(define-fun .def_213 () Bool (and .def_211 .def_212))
(define-fun .def_215 () Bool (and .def_213 .def_214))
(define-fun .def_217 () Bool (and .def_215 .def_216))
(define-fun .def_282 () Bool (! (or .def_217 .def_281) :trans true))
(define-fun .def_292 () Int (select .def_12 .def_284))
(define-fun .def_293 () Bool (<= .def_292 (- 1)))
(define-fun .def_294 () Bool (and .def_249 .def_293))
(define-fun .def_289 () Bool (<= .def_284 0))
(define-fun .def_290 () Bool (not .def_289))
(define-fun .def_291 () Bool (or .def_248 .def_290))
(define-fun .def_295 () Bool (and .def_291 .def_294))
(define-fun .def_285 () Int (* (- 1) .def_284))
(define-fun .def_286 () Int (+ .def_20 .def_285))
(define-fun .def_287 () Int (+ .def_18 .def_286))
(define-fun .def_288 () Bool (= .def_287 0))
(define-fun .def_296 () Bool (and .def_288 .def_295))
(define-fun .def_297 () Bool (and .def_261 .def_296))
(define-fun .def_298 () Bool (and .def_242 .def_297))
(define-fun .def_300 () Bool (! (not .def_298) :invar-property 0))
(assert true)
